(declare-const delta_i Int)
(declare-const delta_k Int)
(assert (exists
         ((|k'?1| Int) (|i'?2| Int) (phi_k?3 Int) (phi_v?4 Int) (havoc?5 Int)
            (c1?6 Int) (k?7 Int) (c2?8 Int) (i?9 Int) (n?10 Int))
         (and (< (- c1?6) 0) (<= (- k?7) 0) (< (- c2?8) 0) (<= (- i?9) 0)
                (< (- n?10) 0) (= (+ c1?6 -4000) 0) (= (+ c2?8 -2000) 0)
                (< (+ (- n?10) i?9) 0)
                (or (and (= (mod havoc?5 2) 0) (= (- phi_v?4) 0))
                      (and (or (< (mod havoc?5 2) 0) (< 0 (mod havoc?5 2)))
                             (= (+ (- phi_v?4) 1) 0)))
                (or (and (= phi_v?4 0) (= (+ (- phi_k?3) k?7 c1?6) 0))
                      (and (or (< phi_v?4 0) (< 0 phi_v?4))
                             (= (+ (- phi_k?3) c2?8 k?7) 0)))
                (= (+ |k'?1| (- phi_k?3)) 0) (= (+ |i'?2| (- i?9) -1) 0)
                (= delta_i (+ |i'?2| (- i?9))) (= delta_k (+ |k'?1| (- k?7))))))
(check-sat)
